(set-logic ALL)
(declare-fun seed0_T_1 () Int)
(declare-fun seed0_T_2 () Bool)
(declare-fun seed0_var_0xINPUT_217523 () String)
(assert (and (or (>= seed0_T_1 (str.len seed0_var_0xINPUT_217523)) (or (distinct (- seed0_T_1 (- 58)) (mod seed0_T_1 seed0_T_1)) (< (mod seed0_T_1 seed0_T_1) (+ seed0_T_1 (- 188))))) (or (= seed0_T_2 (= seed0_T_1 0)) (not (str.contains (str.++ seed0_var_0xINPUT_217523 "GpMdfgyOCJSzt0Wrkv") (str.++ seed0_var_0xINPUT_217523 "KF5n2pjN4cymxohA")))) (or seed0_T_2 (xor (>= (mod seed0_T_1 seed0_T_1) (+ seed0_T_1 (- 889))) (< (div seed0_T_1 seed0_T_1) (* seed0_T_1 seed0_T_1))))))
(check-sat)
(exit)